(set-logic ALL)
(declare-const BAV1 Bool)
(declare-const GEN3 String)
(declare-const GEN2 String)
(declare-const GEN1 String)
(set-option :strings-exp true)
(declare-const x String)
(declare-const y String)
(assert (not (= (str.replace GEN1 (str.replace x GEN2 y) x) (str.replace GEN3 x (str.replace x y x)))))
(assert (= BAV1 (= (str.replace GEN1 (str.replace x GEN2 y) x) (str.replace GEN3 x (str.replace x y x)))))
(check-sat)
(get-model)